This is Ipopt version 3.14.16, running with linear solver MUMPS 5.7.3.

Number of nonzeros in equality constraint Jacobian...:        0
Number of nonzeros in inequality constraint Jacobian.:      510
Number of nonzeros in Lagrangian Hessian.............:        0

Total number of variables............................:       15
                     variables with only lower bounds:        0
                variables with lower and upper bounds:       15
                     variables with only upper bounds:        0
Total number of equality constraints.................:        0
Total number of inequality constraints...............:       34
        inequality constraints with only lower bounds:        0
   inequality constraints with lower and upper bounds:        0
        inequality constraints with only upper bounds:       34

iter    objective    inf_pr   inf_du lg(mu)  ||d||  lg(rg) alpha_du alpha_pr  ls
   0  7.3448889e+02 3.78e+05 2.00e+00   0.0 0.00e+00    -  0.00e+00 0.00e+00   0
   1  5.3503971e+01 1.44e+03 2.27e+02   1.2 4.54e+01    -  1.06e-03 8.72e-02f  1
   2  3.1462705e-01 1.49e+00 1.12e+02   0.3 4.69e+00    -  5.07e-01 5.03e-01h  1
   3  6.3545969e-02 6.32e-01 3.34e+01  -0.1 6.45e+00    -  9.99e-01 7.11e-01h  1
   4  6.5085272e-02 1.93e-02 6.37e+00  -0.3 9.04e-01    -  9.65e-01 8.06e-01h  1
   5  6.5167529e-02 1.42e-03 4.46e-01  -1.7 1.00e-01    -  9.96e-01 9.55e-01h  1
   6  6.5197037e-02 2.90e-04 8.54e-02  -3.4 6.60e-02    -  9.99e-01 1.00e+00h  1
   7  6.5208992e-02 4.72e-05 1.08e-02  -4.2 2.82e-02    -  9.97e-01 1.00e+00h  1
   8  6.5212952e-02 3.96e-08 5.31e-03  -5.7 1.04e-02    -  1.00e+00 1.00e+00h  1
   9  6.5213990e-02 0.00e+00 4.74e-03  -7.1 3.31e-03    -  1.00e+00 1.00e+00h  1
iter    objective    inf_pr   inf_du lg(mu)  ||d||  lg(rg) alpha_du alpha_pr  ls
  10  6.5213834e-02 0.00e+00 2.25e-05  -7.1 2.76e-05    -  1.00e+00 1.00e+00h  1
  11  6.4607794e-02 0.00e+00 8.44e-03  -5.3 3.07e+00    -  5.03e-01 2.84e-02f  2
  12  5.9950508e-02 4.42e-04 4.29e-02  -5.9 1.32e+00    -  1.00e+00 1.58e-01h  1
  13  5.2791406e-02 1.05e-04 3.46e-03  -4.9 9.71e-01    -  1.00e+00 5.03e-01h  1
  14  3.6247052e-02 1.87e-04 2.09e-03  -5.3 8.57e-01    -  6.75e-01 1.00e+00h  1
  15  3.1840774e-02 1.23e-05 1.04e-04  -5.3 2.89e-01    -  1.00e+00 1.00e+00h  1
  16  1.6745985e-02 0.00e+00 1.30e-04  -5.8 9.10e-01    -  9.87e-01 1.00e+00h  1
  17  2.0836924e-02 0.00e+00 4.80e-05  -5.5 3.97e+00    -  1.00e+00 1.00e+00h  1
  18  1.4352693e-02 0.00e+00 4.42e-05  -6.0 8.34e-01    -  9.62e-01 1.00e+00h  1
  19  1.1789347e-02 0.00e+00 2.48e-05  -6.1 6.99e+00    -  9.95e-01 1.00e+00h  1
iter    objective    inf_pr   inf_du lg(mu)  ||d||  lg(rg) alpha_du alpha_pr  ls
  20  9.5880780e-03 6.34e-04 8.68e-05  -6.2 7.62e+00    -  1.00e+00 1.00e+00h  1
  21  1.2244289e-02 4.02e-05 3.24e-05  -5.8 5.59e+00    -  1.00e+00 1.00e+00h  1
  22  8.9204684e-03 1.33e-04 1.15e-04  -5.9 1.63e+00    -  1.00e+00 9.29e-01H  1
  23  6.1620525e-03 2.24e-01 9.15e-05  -6.6 3.17e-01    -  9.98e-01 1.00e+00h  1
  24  5.7527909e-03 0.00e+00 1.33e-04  -6.2 8.70e-01    -  9.54e-01 1.00e+00h  1
  25  4.5075788e-03 3.32e-01 2.88e-05  -6.5 4.45e-01    -  9.98e-01 1.00e+00h  1
  26  4.4541068e-03 0.00e+00 4.64e-06  -6.6 5.94e-02    -  1.00e+00 1.00e+00h  1
  27  4.2842805e-03 0.00e+00 1.68e-06  -7.0 1.76e-01    -  1.00e+00 1.00e+00h  1
  28  4.1951802e-03 0.00e+00 1.73e-05  -7.7 2.05e-01    -  9.93e-01 1.00e+00h  1
  29  4.1674080e-03 0.00e+00 1.21e-06  -8.3 2.50e-02    -  1.00e+00 1.00e+00h  1
iter    objective    inf_pr   inf_du lg(mu)  ||d||  lg(rg) alpha_du alpha_pr  ls
  30  4.1574855e-03 0.00e+00 6.31e-07  -8.6 7.24e-03    -  1.00e+00 1.00e+00h  1
  31  4.1533672e-03 0.00e+00 4.56e-08  -9.5 4.90e-03    -  1.00e+00 1.00e+00h  1
  32  4.1524079e-03 0.00e+00 5.80e-08 -10.9 1.12e-03    -  1.00e+00 1.00e+00h  1
  33  4.1523089e-03 0.00e+00 5.55e-08 -11.0 1.33e-03    -  1.00e+00 1.00e+00h  1
  34  4.1522831e-03 0.00e+00 4.06e-08 -11.0 2.29e-03    -  1.00e+00 1.00e+00h  1
  35  4.1522855e-03 0.00e+00 6.08e-08 -11.0 8.04e-04    -  1.00e+00 1.00e+00h  1
  36  4.1522820e-03 0.00e+00 9.27e-10 -11.0 5.25e-04    -  1.00e+00 1.00e+00h  1

Number of Iterations....: 36

                                   (scaled)                 (unscaled)
Objective...............:   1.9749290781112859e-05    4.1522820448127119e-03
Dual infeasibility......:   9.2668656193988568e-10    1.9483555206914552e-07
Constraint violation....:   0.0000000000000000e+00    0.0000000000000000e+00
Variable bound violation:   0.0000000000000000e+00    0.0000000000000000e+00
Complementarity.........:   1.0000000000000003e-11    2.1024967887878426e-09
Overall NLP error.......:   9.2668656193988568e-10    1.9483555206914552e-07


Number of objective function evaluations             = 41
Number of objective gradient evaluations             = 37
Number of equality constraint evaluations            = 0
Number of inequality constraint evaluations          = 41
Number of equality constraint Jacobian evaluations   = 0
Number of inequality constraint Jacobian evaluations = 37
Number of Lagrangian Hessian evaluations             = 0
Total seconds in IPOPT                               = 5.391

EXIT: Optimal Solution Found.
